40
311
7
7
69
76
68
61
19
80
0 4
0 5
0 8
0 9
0 11
0 14
0 15
0 16
0 23
0 32
0 36
0 39
1 2
1 7
1 8
1 10
1 11
1 13
1 15
1 19
1 20
1 22
1 24
1 29
1 30
1 31
1 35
1 39
2 3
2 4
2 7
2 8
2 10
2 14
2 16
2 19
2 25
2 26
2 28
2 30
2 34
2 36
3 5
3 7
3 8
3 9
3 11
3 12
3 13
3 16
3 22
3 23
3 30
3 32
3 34
3 37
3 39
4 6
4 12
4 16
4 18
4 19
4 23
4 25
4 27
4 29
4 30
4 32
4 33
4 35
4 38
4 39
5 6
5 8
5 9
5 13
5 17
5 18
5 19
5 22
5 23
5 26
5 27
5 28
5 30
5 33
5 34
5 37
5 38
6 7
6 9
6 10
6 13
6 15
6 26
6 28
6 33
6 36
6 39
7 10
7 14
7 16
7 19
7 20
7 26
7 30
7 31
7 32
7 35
7 37
7 38
8 11
8 14
8 21
8 26
8 27
8 32
8 35
8 37
9 11
9 14
9 16
9 18
9 22
9 23
9 25
9 26
9 31
9 32
9 33
9 34
9 35
9 36
9 37
9 39
10 16
10 19
10 22
10 23
10 25
10 27
10 28
10 30
10 31
10 33
10 37
11 12
11 13
11 17
11 18
11 19
11 24
11 25
11 27
11 29
11 30
11 32
11 33
11 34
11 39
12 14
12 15
12 21
12 30
12 31
12 34
12 36
12 37
12 38
13 17
13 18
13 19
13 20
13 25
13 27
13 28
13 30
13 32
13 34
13 35
13 39
14 15
14 16
14 17
14 18
14 20
14 24
14 26
14 27
14 29
14 30
14 33
14 34
14 39
15 21
15 25
15 27
15 29
15 31
15 32
15 36
15 37
15 38
16 18
16 21
16 22
16 25
16 26
16 30
16 33
16 36
17 25
17 28
17 29
17 32
17 33
17 38
18 19
18 20
18 25
18 26
18 27
18 29
18 30
18 31
18 32
18 38
19 20
19 23
19 24
19 26
19 27
19 28
19 32
19 34
19 36
19 38
19 39
20 24
20 27
20 28
20 30
20 32
21 25
21 31
21 33
21 34
21 36
21 38
21 39
22 26
22 27
22 30
22 37
22 38
23 24
23 26
23 28
23 29
23 30
23 35
23 37
23 38
24 25
24 32
24 35
24 38
24 39
25 27
25 28
25 29
25 30
25 36
25 39
26 28
26 29
26 30
26 32
26 35
26 37
27 29
27 35
27 39
28 30
28 32
28 33
28 36
29 32
29 39
30 32
30 34
30 35
30 37
30 38
30 39
31 33
31 36
31 38
31 39
32 35
32 37
33 36
33 38
34 35
34 36
34 39
36 37
36 38
36 39
37 38
38 39
22 18 29 2 31 14
36 37 6 15 1 25
13 27 35 21 16 38
7 8 26 23 4 17
3 0 24 10 32 39
30 12 11 28 34 20
5 33 9 19
